p cnf 27 114
1 2 3 0 
-1 -2 0 
-1 -3 0 
-2 -3 0 
4 5 6 0 
-4 -5 0 
-4 -6 0 
-5 -6 0 
7 8 9 0 
-7 -8 0 
-7 -9 0 
-8 -9 0 
10 11 12 0 
-10 -11 0 
-10 -12 0 
-11 -12 0 
13 14 15 0 
-13 -14 0 
-13 -15 0 
-14 -15 0 
16 17 18 0 
-16 -17 0 
-16 -18 0 
-17 -18 0 
19 20 21 0 
-19 -20 0 
-19 -21 0 
-20 -21 0 
22 23 24 0 
-22 -23 0 
-22 -24 0 
-23 -24 0 
25 26 27 0 
-25 -26 0 
-25 -27 0 
-26 -27 0 
-1 -25 0
-2 -26 0
-3 -27 0
-1 -22 0
-2 -23 0
-3 -24 0
-1 -19 0
-2 -20 0
-3 -21 0
-1 -16 0
-2 -17 0
-3 -18 0
-1 -13 0
-2 -14 0
-3 -15 0
-1 -10 0
-2 -11 0
-3 -12 0
-1 -7 0
-2 -8 0
-3 -9 0
-4 -19 0
-5 -20 0
-6 -21 0
-4 -10 0
-5 -11 0
-6 -12 0
-7 -25 0
-8 -26 0
-9 -27 0
-7 -22 0
-8 -23 0
-9 -24 0
-7 -19 0
-8 -20 0
-9 -21 0
-7 -16 0
-8 -17 0
-9 -18 0
-7 -13 0
-8 -14 0
-9 -15 0
-7 -1 0
-8 -2 0
-9 -3 0
-10 -25 0
-11 -26 0
-12 -27 0
-10 -22 0
-11 -23 0
-12 -24 0
-10 -19 0
-11 -20 0
-12 -21 0
-10 -16 0
-11 -17 0
-12 -18 0
-10 -13 0
-11 -14 0
-12 -15 0
-10 -4 0
-11 -5 0
-12 -6 0
-10 -1 0
-11 -2 0
-12 -3 0
-13 -25 0
-14 -26 0
-15 -27 0
-13 -19 0
-14 -20 0
-15 -21 0
-13 -16 0
-14 -17 0
-15 -18 0
-13 -10 0
-14 -11 0
-15 -12 0
-13 -7 0
-14 -8 0
-15 -9 0
-13 -1 0
-14 -2 0
-15 -3 0
-16 -25 0
-17 -26 0
-18 -27 0
-16 -19 0
-17 -20 0
-18 -21 0
-16 -13 0
-17 -14 0
-18 -15 0
-16 -10 0
-17 -11 0
-18 -12 0
-16 -7 0
-17 -8 0
-18 -9 0
-16 -1 0
-17 -2 0
-18 -3 0
-19 -25 0
-20 -26 0
-21 -27 0
-19 -22 0
-20 -23 0
-21 -24 0
-19 -16 0
-20 -17 0
-21 -18 0
-19 -13 0
-20 -14 0
-21 -15 0
-19 -10 0
-20 -11 0
-21 -12 0
-19 -7 0
-20 -8 0
-21 -9 0
-19 -4 0
-20 -5 0
-21 -6 0
-19 -1 0
-20 -2 0
-21 -3 0
-22 -19 0
-23 -20 0
-24 -21 0
-22 -10 0
-23 -11 0
-24 -12 0
-22 -7 0
-23 -8 0
-24 -9 0
-22 -1 0
-23 -2 0
-24 -3 0
-25 -19 0
-26 -20 0
-27 -21 0
-25 -16 0
-26 -17 0
-27 -18 0
-25 -13 0
-26 -14 0
-27 -15 0
-25 -10 0
-26 -11 0
-27 -12 0
-25 -7 0
-26 -8 0
-27 -9 0
-25 -1 0
-26 -2 0
-27 -3 0
